
Gurobi 11.0.1 (win64) logging started Mon Apr  1 12:27:16 2024

Set parameter LogFile to value "C:\Projetos\Job_Rotation_Algorithms\Outputs\GurobiLogs\gurobi_log-output-21_hes-c220-BorbaRittModel-NoExtraConstraint-2.log"
Gurobi Optimizer version 11.0.1 build v11.0.1rc0 (win64 - Windows 10.0 (19045.2))

CPU model: 11th Gen Intel(R) Core(TM) i7-1165G7 @ 2.80GHz, instruction set [SSE2|AVX|AVX2|AVX512]
Thread count: 4 physical cores, 8 logical processors, using up to 1 threads


Gurobi 11.0.1 (win64) logging started Mon Apr  1 16:28:43 2024

Set parameter LogFile to value "C:\Projetos\Job_Rotation_Algorithms\Outputs\GurobiLogs\gurobi_log-output-21_hes-c220-BorbaRittModel-NoExtraConstraint-2.log"
Gurobi Optimizer version 11.0.1 build v11.0.1rc0 (win64 - Windows 10.0 (19045.2))

CPU model: 11th Gen Intel(R) Core(TM) i7-1165G7 @ 2.80GHz, instruction set [SSE2|AVX|AVX2|AVX512]
Thread count: 4 physical cores, 8 logical processors, using up to 1 threads

WLS license 901039 - registered to Bitka Analytics
Optimize a model with 914 rows, 311 columns and 2925 nonzeros
Model fingerprint: 0x632c239f
Variable types: 2 continuous, 309 integer (309 binary)
Coefficient statistics:
  Matrix range     [1e+00, 2e+02]
  Objective range  [1e+00, 1e+00]
  Bounds range     [1e+00, 4e+02]
  RHS range        [1e+00, 4e+02]
Presolve removed 5 rows and 5 columns
Presolve time: 0.01s
Presolved: 909 rows, 306 columns, 2915 nonzeros
Variable types: 0 continuous, 306 integer (305 binary)

Root relaxation: objective 5.600000e+01, 404 iterations, 0.01 seconds (0.01 work units)

    Nodes    |    Current Node    |     Objective Bounds      |     Work
 Expl Unexpl |  Obj  Depth IntInf | Incumbent    BestBd   Gap | It/Node Time

     0     0   56.00000    0   73          -   56.00000      -     -    0s
     0     0   56.00000    0  126          -   56.00000      -     -    0s
     0     0   56.00000    0   97          -   56.00000      -     -    0s
     0     0   56.00000    0   97          -   56.00000      -     -    0s
     0     0   56.00000    0   86          -   56.00000      -     -    0s
     0     0   56.00000    0   86          -   56.00000      -     -    0s
     0     0   56.00000    0   56          -   56.00000      -     -    0s
     0     0   56.00000    0   56          -   56.00000      -     -    0s
     0     0   56.00000    0   47          -   56.00000      -     -    0s
     0     0   56.00000    0   79          -   56.00000      -     -    0s
     0     0   56.00000    0   71          -   56.00000      -     -    0s
     0     0   56.00000    0   67          -   56.00000      -     -    0s
     0     0   56.00000    0   71          -   56.00000      -     -    0s
     0     0   56.00000    0   41          -   56.00000      -     -    0s
     0     2   56.00000    0   41          -   56.00000      -     -    0s
H  767   380                      37.0000000   56.00000  51.4%  59.3    1s
H  768   361                      43.0000000   56.00000  30.2%  59.2    2s
H  768   343                      44.0000000   56.00000  27.3%  59.2    2s
H  776   331                      48.0000000   56.00000  16.7%  58.6    2s
H  788   321                      50.0000000   56.00000  12.0%  57.7    2s
H  920   326                      52.0000000   56.00000  7.69%  68.3    3s
H  921   304                      53.0000000   56.00000  5.66%  68.2    3s
*  925   274              36      54.0000000   56.00000  3.70%  67.9    3s
*  985   227              30      55.0000000   56.00000  1.82%  68.6    3s
  1093   220 infeasible   28        55.00000   56.00000  1.82%  40.0    5s

Cutting planes:
  MIR: 2
  Flow cover: 5
  GUB cover: 1
  Zero half: 1
  RLT: 4

Explored 1127 nodes (98446 simplex iterations) in 5.21 seconds (5.47 work units)
Thread count was 1 (of 8 available processors)

Solution count 9: 55 54 53 ... 37

Optimal solution found (tolerance 1.00e-03)
Best objective 5.500000000000e+01, best bound 5.500000000000e+01, gap 0.0000%
